CPXPARAM_Read_DataCheck                          1
Found incumbent of value 0.000000 after 0.00 sec. (0.52 ticks)
Tried aggregator 1 time.
MIP Presolve eliminated 5 rows and 0 columns.
MIP Presolve modified 1 coefficients.
Reduced MIP has 2026 rows, 20010 columns, and 90030 nonzeros.
Reduced MIP has 20010 binaries, 0 generals, 0 SOSs, and 0 indicators.
Presolve time = 0.05 sec. (34.11 ticks)
Tried aggregator 1 time.
Reduced MIP has 2026 rows, 20010 columns, and 90030 nonzeros.
Reduced MIP has 20010 binaries, 0 generals, 0 SOSs, and 0 indicators.
Presolve time = 0.05 sec. (38.05 ticks)
Probing time = 0.02 sec. (5.52 ticks)
Clique table members: 20000.
MIP emphasis: balance optimality and feasibility.
MIP search method: dynamic search.
Parallel mode: deterministic, using up to 4 threads.
Root relaxation solution time = 0.23 sec. (243.93 ticks)

        Nodes                                         Cuts/
   Node  Left     Objective  IInf  Best Integer    Best Bound    ItCnt     Gap

*     0+    0                            0.0000   124598.0000              --- 
*     0+    0                         5758.0000   124598.0000              --- 
      0     0    70461.7650    11     5758.0000    70461.7650       15     --- 
*     0+    0                        30105.0000    70461.7650           134.05%
      0     0        cutoff          30105.0000    30105.0000     6744    0.00%
Elapsed time = 5.03 sec. (2889.78 ticks, tree = 0.01 MB, solutions = 3)

Clique cuts applied:  585
Cover cuts applied:  1
Implied bound cuts applied:  1
Mixed integer rounding cuts applied:  19

Root node processing (before b&c):
  Real time             =    5.05 sec. (2891.23 ticks)
Parallel b&c, 4 threads:
  Real time             =    0.00 sec. (0.00 ticks)
  Sync time (average)   =    0.00 sec.
  Wait time (average)   =    0.00 sec.
                          ------------
Total (root+branch&cut) =    5.05 sec. (2891.23 ticks)
